6473
1 1 1 0 1 1 0 1 0 0 0 0 0 0 0 0 0 1 0 0
0 0 0 0 0 0 0 7 7 1 1 1 1 1 1 2 2 2 2 2 2 4 4 4 4 4 4 4 4 5 5 5 5 5 5 5 5 5 0 0 2 2 4 2 1 17 0 7 0 5 17 17 17 17 7 5 5 0 7 7 2 2 7 17 7 7 17 17 7 7 7 2 17 17 17 17 17 17 7 7
